Features/ForMiniZinc/benchmark_puzzles/benchmarks5x5/55/puzzle7.dzn
S = 5;
start = [|15,0,22,23,0,16,0,0,0,0,17,0,0,1,11,0,0,18,7,19,0,20,0,4,0|
0,10,1,0,20,12,0,3,7,0,14,24,0,0,0,17,0,0,5,0,0,0,0,0,0|
0,0,0,0,21,0,0,10,0,1,0,0,13,0,22,23,0,0,0,8,2,24,3,7,6|
0,14,0,0,0,0,5,0,0,0,0,19,0,0,0,0,0,0,0,10,15,0,1,0,0|
0,11,0,0,18,14,0,9,23,21,12,0,8,0,0,15,0,0,0,0,0,0,25,16,0|
0,0,0,0,10,13,17,14,25,8,2,6,0,0,0,0,0,7,20,0,0,0,0,19,24|
14,0,9,3,6,0,0,0,15,0,0,0,0,22,0,0,0,24,0,17,0,21,0,0,1|
0,0,0,25,8,22,24,16,20,0,15,17,7,23,3,0,4,0,0,5,0,0,0,0,14|
0,20,24,0,17,0,11,0,0,0,0,0,0,0,0,13,6,0,0,0,16,0,8,5,0|
22,0,11,7,0,9,6,5,18,10,20,13,0,21,0,16,0,19,0,0,4,3,2,0,17|
24,4,0,10,3,17,0,11,16,0,21,14,2,9,0,5,22,0,0,7,1,0,13,12,25|
9,6,0,0,7,0,0,0,0,0,0,0,15,16,17,3,2,0,25,20,18,22,0,14,0|
20,21,0,0,0,0,0,22,0,0,10,4,0,0,0,0,0,0,0,1,0,9,19,2,7|
0,5,0,12,0,0,9,0,2,20,25,1,0,0,0,0,0,21,18,0,24,0,0,0,0|
0,18,0,0,0,3,0,0,0,0,22,0,24,8,0,4,0,17,13,9,20,0,21,0,15|
17,0,0,0,1,0,0,0,24,0,9,22,20,0,12,0,18,0,16,21,0,0,0,6,2|
6,22,10,20,0,1,13,0,5,0,0,0,17,0,0,0,0,3,0,0,25,0,0,21,18|
3,12,18,21,24,10,0,0,17,0,0,8,0,7,0,0,5,25,19,0,0,13,15,0,11|
0,15,4,0,25,19,7,0,3,0,0,21,5,6,0,0,0,0,0,24,8,10,16,1,12|
0,7,0,19,9,0,0,0,0,0,0,0,0,10,15,0,0,0,0,6,23,14,17,22,0|
1,0,0,13,0,6,0,24,0,0,0,20,0,0,0,0,0,0,0,25,0,2,22,0,0|
12,0,0,22,0,0,0,18,0,0,7,0,0,0,0,0,15,5,0,4,13,1,0,0,0|
21,0,0,8,15,5,0,0,22,7,0,0,0,14,0,1,0,0,0,13,11,0,0,0,20|
0,0,14,0,11,0,0,0,0,0,13,15,22,24,25,0,0,16,21,18,0,7,0,10,9|
10,0,20,0,19,21,14,0,0,0,6,0,1,17,2,8,7,22,0,12,0,15,23,0,5|];